100 10
311 561
414 607
214 569
616 640
367 622
533 250
404 246
514 427
634 595
630 654
500 504
861 276
90 646
310 636
557 316
541 612
181 665
363 339
134 690
297 513
221 823
480 334
233 603
315 702
806 601
185 695
473 612
713 239
452 642
710 583
399 331
346 532
579 716
820 649
256 718
376 624
765 110
490 404
277 408
667 771
295 553
632 582
652 302
865 402
597 287
571 512
859 315
328 459
377 537
331 391
407 431
688 430
649 704
487 415
447 551
721 480
598 430
743 606
665 359
534 518
211 423
834 425
771 493
646 410
313 375
519 688
689 528
437 571
312 562
740 526
614 546
623 406
332 410
820 467
489 432
463 452
772 442
437 664
287 570
394 308
504 314
835 379
732 300
465 549
849 596
408 556
741 750
524 405
706 341
511 782
618 637
513 296
551 649
576 430
547 473
697 506
387 467
551 544
635 155
869 439
